
100
24497

683 300
92 5
618 268
842 516
835 28
516 592
632 445
370 333
529 756
108 619
683 966
601 870
282 861
379 934
737 850
444 487
960 69
972 448
839 620
92 970
76 654
289 575
362 87
705 651
827 38
563 144
640 44
574 733
35 942
527 595
214 88
417 740
9 175
656 710
911 677
69 945
581 166
24 234
352 320
160 77
861 946
729 623
897 107
218 478
719 99
700 964
511 360
917 3
625 741
283 331
718 650
482 783
214 75
618 547
49 951
450 228
557 250
3 674
649 58
89 820
650 803
342 947
30 834
1000 581
65 461
157 537
506 637
246 977
531 153
475 495
577 450
544 246
295 164
212 784
695 585
429 690
521 258
916 480
9 160
278 152
564 135
54 649
754 848
402 572
317 781
195 79
967 519
47 140
822 525
705 249
898 254
702 919
347 549
550 244
922 491
41 285
850 795
674 398
197 843
967 595
